300
200 200
1 140 223
2 139 350
3 139 796
4 139 254
5 138 11
6 138 874
7 138 92
8 137 912
9 137 910
10 136 855
11 136 617
12 136 124
13 133 988
14 133 555
15 133 450
16 133 66
17 133 790
18 133 960
19 133 476
20 133 67
21 132 38
22 132 420
23 132 911
24 131 790
25 130 669
26 130 260
27 130 405
28 129 753
29 129 113
30 128 131
31 128 600
32 127 300
33 127 525
34 126 310
35 126 681
36 126 836
37 126 443
38 125 993
39 125 891
40 125 305
41 125 51
42 125 422
43 123 255
44 123 651
45 123 441
46 123 168
47 122 782
48 122 910
49 122 94
50 120 184
51 120 222
52 119 908
53 119 931
54 118 645
55 118 982
56 117 90
57 117 114
58 117 44
59 116 473
60 116 156
61 116 555
62 115 393
63 114 209
64 114 762
65 113 783
66 112 908
67 112 649
68 112 655
69 111 382
70 110 254
71 110 183
72 109 143
73 109 913
74 108 197
75 108 767
76 108 841
77 108 780
78 107 482
79 107 743
80 107 704
81 107 798
82 106 890
83 106 813
84 105 302
85 105 551
86 105 298
87 104 808
88 104 789
89 103 248
90 102 560
91 101 475
92 100 90
93 100 882
94 99 953
95 99 224
96 99 903
97 98 345
98 98 935
99 97 179
100 97 697
101 96 805
102 95 504
103 94 308
104 93 917
105 93 211
106 93 758
107 92 213
108 92 121
109 92 977
110 91 883
111 91 300
112 91 763
113 91 103
114 90 952
115 90 862
116 90 467
117 89 796
118 89 106
119 88 803
120 87 823
121 87 864
122 87 19
123 86 154
124 86 26
125 86 954
126 86 488
127 85 683
128 84 6
129 84 725
130 84 31
131 84 695
132 84 506
133 82 8
134 82 920
135 81 721
136 81 766
137 81 962
138 81 48
139 80 856
140 80 26
141 79 361
142 79 350
143 79 373
144 79 139
145 78 896
146 78 722
147 77 926
148 77 477
149 76 744
150 76 868
151 75 611
152 75 2
153 75 927
154 74 153
155 74 100
156 73 494
157 73 478
158 72 814
159 71 58
160 71 744
161 71 10
162 71 884
163 71 440
164 71 823
165 70 950
166 70 842
167 69 558
168 69 150
169 68 667
170 68 766
171 68 656
172 67 655
173 67 139
174 66 903
175 66 107
176 66 349
177 66 819
178 66 394
179 66 620
180 66 356
181 66 241
182 65 723
183 64 714
184 64 52
185 64 72
186 63 343
187 63 659
188 62 643
189 62 906
190 62 79
191 62 999
192 62 665
193 61 170
194 61 394
195 61 49
196 60 398
197 60 752
198 60 839
199 60 5
200 59 195
201 59 898
202 59 141
203 59 708
204 58 730
205 58 237
206 58 873
207 58 848
208 58 247
209 56 788
210 56 998
211 56 753
212 56 69
213 56 557
214 55 642
215 55 986
216 55 685
217 55 359
218 54 902
219 53 496
220 53 388
221 52 163
222 51 806
223 51 929
224 51 778
225 50 297
226 49 95
227 49 885
228 49 798
229 49 712
230 48 933
231 48 855
232 47 651
233 47 432
234 46 410
235 46 913
236 45 960
237 45 145
238 45 467
239 45 797
240 44 418
241 44 932
242 44 90
243 44 37
244 43 489
245 43 292
246 43 712
247 42 894
248 42 193
249 42 74
250 41 773
251 41 310
252 41 388
253 40 141
254 40 909
255 40 89
256 38 331
257 37 39
258 37 824
259 37 432
260 37 948
261 37 57
262 36 774
263 36 917
264 36 709
265 35 707
266 34 849
267 34 582
268 34 926
269 33 80
270 33 181
271 32 399
272 31 914
273 31 772
274 30 623
275 29 127
276 29 203
277 28 394
278 28 873
279 27 966
280 27 981
281 26 452
282 26 392
283 25 975
284 25 233
285 25 535
286 24 505
287 24 782
288 24 200
289 23 277
290 23 497
291 23 534
292 23 396
293 23 384
294 22 604
295 21 553
296 21 557
297 21 316
298 20 75
299 20 947
300 20 426
